5 6 70
3 2 1 4 1 4 2 6 26 26 42 42 58 
3 1 1 1 2 1 3 26 35 35 51 51 61 
5 3 1 3 2 3 3 5 1 5 2 10 22 22 29 29 43 46 56 56 70 
2 2 2 2 3 36 44 44 61 
5 2 1 1 1 1 1 5 1 5 1 0 6 6 18 18 26 26 36 36 46 
4 3 1 4 1 4 1 2 2 0 10 10 18 18 24 26 36 
